(set-info :smt-lib-version 2.6)
(set-logic QF_UFLRA)
(set-info :source |
MathSat group

|)
(set-info :category "random")
(set-info :status sat)
(declare-fun x0 () Real)
(declare-fun x1 () Real)
(declare-fun x2 () Real)
(declare-fun x3 () Real)
(declare-fun x4 () Real)
(declare-fun x5 () Real)
(declare-fun x6 () Real)
(declare-fun x7 () Real)
(declare-fun x8 () Real)
(declare-fun x9 () Real)
(declare-fun x10 () Real)
(declare-fun x11 () Real)
(declare-fun x12 () Real)
(declare-fun x13 () Real)
(declare-fun x14 () Real)
(declare-fun x15 () Real)
(declare-fun x16 () Real)
(declare-fun x17 () Real)
(declare-fun x18 () Real)
(declare-fun x19 () Real)
(declare-fun x20 () Real)
(declare-fun x21 () Real)
(declare-fun x22 () Real)
(declare-fun x23 () Real)
(declare-fun x24 () Real)
(declare-fun x25 () Real)
(declare-fun x26 () Real)
(declare-fun x27 () Real)
(declare-fun x28 () Real)
(declare-fun x29 () Real)
(declare-fun x30 () Real)
(declare-fun x31 () Real)
(declare-fun x32 () Real)
(declare-fun x33 () Real)
(declare-fun x34 () Real)
(declare-fun x35 () Real)
(declare-fun x36 () Real)
(declare-fun x37 () Real)
(declare-fun x38 () Real)
(declare-fun x39 () Real)
(declare-fun x40 () Real)
(declare-fun x41 () Real)
(declare-fun x42 () Real)
(declare-fun x43 () Real)
(declare-fun x44 () Real)
(declare-fun x45 () Real)
(declare-fun x46 () Real)
(declare-fun x47 () Real)
(declare-fun x48 () Real)
(declare-fun x49 () Real)
(declare-fun f0_1 (Real) Real)
(declare-fun f0_2 (Real Real) Real)
(declare-fun f0_3 (Real Real Real) Real)
(declare-fun f0_4 (Real Real Real Real) Real)
(declare-fun P0 () Bool)
(declare-fun P1 () Bool)
(declare-fun P2 () Bool)
(declare-fun P3 () Bool)
(declare-fun P4 () Bool)
(declare-fun P5 () Bool)
(declare-fun P6 () Bool)
(declare-fun P7 () Bool)
(declare-fun P8 () Bool)
(declare-fun P9 () Bool)
(declare-fun P10 () Bool)
(declare-fun P11 () Bool)
(declare-fun P12 () Bool)
(declare-fun P13 () Bool)
(declare-fun P14 () Bool)
(declare-fun P15 () Bool)
(declare-fun P16 () Bool)
(declare-fun P17 () Bool)
(declare-fun P18 () Bool)
(declare-fun P19 () Bool)
(declare-fun P20 () Bool)
(declare-fun P21 () Bool)
(declare-fun P22 () Bool)
(declare-fun P23 () Bool)
(declare-fun P24 () Bool)
(declare-fun P25 () Bool)
(declare-fun P26 () Bool)
(declare-fun P27 () Bool)
(declare-fun P28 () Bool)
(declare-fun P29 () Bool)
(declare-fun P30 () Bool)
(declare-fun P31 () Bool)
(declare-fun P32 () Bool)
(declare-fun P33 () Bool)
(declare-fun P34 () Bool)
(declare-fun P35 () Bool)
(declare-fun P36 () Bool)
(declare-fun P37 () Bool)
(declare-fun P38 () Bool)
(declare-fun P39 () Bool)
(declare-fun P40 () Bool)
(declare-fun P41 () Bool)
(declare-fun P42 () Bool)
(declare-fun P43 () Bool)
(declare-fun P44 () Bool)
(declare-fun P45 () Bool)
(declare-fun P46 () Bool)
(declare-fun P47 () Bool)
(declare-fun P48 () Bool)
(declare-fun P49 () Bool)
(assert (let ((?v_185 (< (- (- (* 11 x8) (* 23 x36)) (* 25 x20)) 16)) (?v_235 (< (+ (- (* 2 x26) (* 19 x6)) (* 17 x17)) 4)) (?v_101 (< (+ (- (* 26 x28) (* 9 x12)) (* 5 x38)) 0)) (?v_141 (distinct (- (- (* 14 x4) (* 7 x13)) (* 2 x11)) 0)) (?v_81 (< (- (+ (* 15 x12) (* 6 x43)) (* 15 x41)) 3)) (?v_28 (<= (- (- (* 13 x49) (* 24 x1)) (* 21 x6)) 11)) (?v_209 (distinct (- (+ (* 26 x45) (* 6 x35)) (* 14 x34)) 20)) (?v_108 (* 23 x40)) (?v_110 (<= (+ (- (* 7 x1) (* 27 x22)) (* 3 x22)) 20)) (?v_147 (distinct (f0_2 x14 x37) (f0_2 x13 x45))) (?v_29 (f0_1 x31))) (let ((?v_97 (distinct ?v_29 x41)) (?v_111 (= ?v_29 x13)) (?v_26 (distinct (f0_2 x25 x16) x32)) (?v_102 (= x35 x7)) (?v_138 (= x19 x2)) (?v_74 (distinct (f0_1 x1) (f0_2 x16 x5))) (?v_18 (f0_1 x39))) (let ((?v_160 (= ?v_18 (f0_2 x11 x11))) (?v_10 (= (f0_2 x37 x27) (f0_2 x9 x1))) (?v_93 (= (f0_1 x32) ?v_18)) (?v_19 (= (f0_1 x25) (f0_1 x10))) (?v_142 (= x35 (f0_2 x40 x49))) (?v_6 (f0_1 x26))) (let ((?v_62 (= (f0_1 x0) ?v_6)) (?v_149 (distinct (f0_1 x49) (f0_2 x4 x27))) (?v_30 (= (f0_1 x44) (f0_2 x22 x32))) (?v_44 (distinct (f0_2 x38 x3) (f0_2 x0 x14))) (?v_34 (= x21 (f0_1 x22))) (?v_13 (distinct x9 (f0_1 x4))) (?v_226 (distinct x33 (f0_2 x38 x47))) (?v_1 (= (f0_2 x33 x12) (f0_1 x20))) (?v_35 (distinct x21 (f0_2 x43 x7))) (?v_249 (= (f0_1 x24) x21)) (?v_182 (distinct (f0_2 x22 x26) x23)) (?v_134 (distinct (f0_2 x22 x28) (f0_2 x7 x44))) (?v_187 (f0_1 x27))) (let ((?v_98 (distinct ?v_187 x15)) (?v_190 (distinct (f0_2 x0 x33) x15)) (?v_80 (= x8 (f0_1 x21))) (?v_198 (= (f0_1 x47) (f0_2 x17 x38))) (?v_79 (= ?v_18 (f0_2 x42 x31))) (?v_223 (= x35 ?v_6)) (?v_68 (= (f0_2 x4 x49) x32)) (?v_5 (distinct x16 x32)) (?v_117 (= x31 x48)) (?v_220 (= x0 x7)) (?v_2 (= (f0_1 x9) (f0_1 x15))) (?v_31 (= x23 (f0_2 x14 x29))) (?v_132 (distinct (f0_2 x17 x44) (f0_1 x23))) (?v_24 (distinct x6 x36)) (?v_92 (= x15 (f0_2 x20 x48))) (?v_55 (= (f0_1 x2) (f0_1 x17))) (?v_69 (distinct (f0_1 x30) (f0_1 x42))) (?v_32 (distinct (f0_2 x3 x5) (f0_2 x20 x16))) (?v_88 (distinct (f0_2 x10 x11) x37)) (?v_12 (f0_1 x28))) (let ((?v_39 (distinct (f0_2 x2 x26) ?v_12)) (?v_204 (distinct (f0_1 x6) ?v_187)) (?v_53 (= (f0_2 x5 x17) ?v_12)) (?v_163 (distinct (f0_2 x37 x42) (f0_2 x45 x35))) (?v_37 (distinct x44 ?v_29)) (?v_129 (distinct (f0_2 x26 x28) ?v_12)) (?v_45 (= (f0_1 x19) x37)) (?v_40 (not ?v_93))) (let ((?v_0 (not ?v_37)) (?v_104 (not P27)) (?v_217 (not ?v_223)) (?v_54 (not P44)) (?v_127 (not ?v_102)) (?v_106 (not ?v_80)) (?v_64 (not ?v_30)) (?v_15 (not ?v_220)) (?v_7 (not ?v_149)) (?v_20 (not ?v_142)) (?v_22 (not P16)) (?v_119 (not P8)) (?v_14 (not ?v_69)) (?v_11 (not ?v_1)) (?v_115 (not ?v_2)) (?v_214 (not ?v_5)) (?v_123 (not ?v_62)) (?v_52 (not ?v_74)) (?v_113 (not ?v_129)) (?v_41 (not ?v_55)) (?v_121 (not P31)) (?v_192 (not P17)) (?v_46 (not ?v_44)) (?v_76 (not P46)) (?v_23 (not ?v_81)) (?v_72 (not ?v_13)) (?v_17 (not ?v_45)) (?v_71 (not ?v_35)) (?v_86 (not P20)) (?v_25 (not ?v_79)) (?v_60 (not P33)) (?v_225 (not ?v_19)) (?v_33 (not P45)) (?v_51 (not ?v_24)) (?v_186 (not P28)) (?v_131 (not ?v_198)) (?v_156 (not ?v_111)) (?v_244 (or ?v_31 ?v_26)) (?v_218 (not ?v_32)) (?v_179 (not ?v_28)) (?v_221 (not P19)) (?v_183 (not P42)) (?v_95 (not ?v_97)) (?v_202 (not P48)) (?v_82 (not P23)) (?v_47 (not P47)) (?v_99 (not P29)) (?v_103 (not ?v_163)) (?v_243 (not ?v_10)) (?v_112 (not ?v_53)) (?v_61 (not ?v_39)) (?v_59 (not ?v_26)) (?v_65 (not P37)) (?v_148 (not P41)) (?v_96 (not P11)) (?v_173 (not ?v_92)) (?v_130 (not P40)) (?v_224 (not P9)) (?v_180 (not ?v_68)) (?v_116 (not ?v_190)) (?v_107 (not P14)) (?v_128 (not P12)) (?v_151 (not ?v_185)) (?v_91 (not ?v_34)) (?v_230 (not P6)) (?v_114 (not P18)) (?v_161 (not ?v_88)) (?v_195 (not P38)) (?v_193 (not P34)) (?v_232 (not P49)) (?v_155 (not ?v_98)) (?v_239 (not P26)) (?v_125 (not ?v_101)) (?v_212 (not P2)) (?v_143 (not P4)) (?v_164 (not ?v_182)) (?v_120 (not ?v_31)) (?v_166 (not ?v_138))) (let ((?v_144 (or P40 ?v_130)) (?v_197 (not ?v_134)) (?v_146 (not P30)) (?v_152 (not P32)) (?v_238 (not ?v_110)) (?v_176 (not P39)) (?v_201 (not ?v_147)) (?v_165 (not ?v_226)) (?v_216 (not ?v_160)) (?v_171 (not P36)) (?v_184 (not P24)) (?v_170 (not P7)) (?v_240 (not ?v_209)) (?v_194 (not ?v_132)) (?v_215 (not ?v_141)) (?v_177 (not P43)) (?v_199 (not P10)) (?v_228 (not ?v_204)) (?v_254 (not P13)) (?v_206 (not P5)) (?v_229 (not P1)) (?v_210 (not P21)) (?v_231 (not P25)) (?v_234 (not ?v_235)) (?v_233 (not ?v_117)) (?v_253 (not P15)) (?v_246 (not P35)) (?v_252 (not P3)) (?v_248 (not P22)) (?v_256 (not ?v_249)) (?v_258 (not P0)) (?v_157 (<= (- (* 26 x36) (* 17 x23)) 2)) (?v_109 (< (* 4 x1) 28)) (?v_158 (< (- (* 20 x44) (* 22 x46)) 13))) (let ((?v_124 (not ?v_158)) (?v_118 (not ?v_109)) (?v_219 (< (+ (* 12 x12) (* 23 x38) (* 4 x10)) 5)) (?v_150 (<= (+ (* 10 x18) (* 13 x15)) 17))) (let ((?v_178 (not ?v_150)) (?v_196 (not ?v_157))) (let ((?v_251 (or ?v_185 ?v_178)) (?v_237 (not ?v_219)) (?v_4 (<= (+ (- (* 15 x40) (* 20 x12)) x37) (- 2))) (?v_9 (<= (- (- (* (- 10) x0) (* 13 x31)) (* 8 x28)) (- 20))) (?v_21 (<= (- (- ?v_108 0) (* 11 x48)) (- 16)))) (let ((?v_16 (not ?v_21)) (?v_139 (<= (+ (* 22 x5) (* 15 x25) (* 26 x4)) (- 10)))) (let ((?v_162 (not ?v_139)) (?v_159 (<= (- (+ (* 10 x26) (* 24 x12)) (* 11 x15)) (- 18))) (?v_242 (< (- (- (* 16 x11) (* 22 x49)) (* 15 x30)) (- 13))) (?v_174 (< (- (- (* (- 6) x27) (* 13 x4)) (* 15 x22)) (- 7))) (?v_3 (<= (- (- (* (- 12) x45) (* 2 x18)) (* 21 x42)) 2))) (let ((?v_57 (not ?v_3)) (?v_27 (< (+ (* (- 3) x33) (* 3 x32) (* 27 x11)) (- 14))) (?v_36 (= (+ (- (* (- 9) x38) (* 24 x43)) (* 6 x22)) (- 28))) (?v_181 (= (- (- (* (- 1) x34) 0) (* 17 x3)) 25))) (let ((?v_8 (not ?v_181)) (?v_48 (not ?v_4)) (?v_43 (= (+ (- (* (- 17) x43) (* 5 x17)) (* 26 x7)) (- 19))) (?v_236 (<= (- (- (* (- 14) x14) (* 14 x42)) (* 13 x27)) 21))) (let ((?v_78 (not ?v_236)) (?v_38 (<= (+ (* (- 24) x30) (* 11 x27)) 22)) (?v_84 (<= (- (* (- 23) x11) (* 5 x49)) (- 9)))) (let ((?v_168 (not ?v_84)) (?v_58 (< (+ (* (- 17) x32) (* 9 x26) (* 14 x25)) (- 7))) (?v_73 (< (- (- (* (- 14) x13) (* 27 x36)) (* 21 x34)) 11)) (?v_222 (< (- (+ (* 7 x10) (* 26 x43)) (* 3 x35)) (- 15)))) (let ((?v_89 (not ?v_222)) (?v_50 (<= (+ (* 10 x36) (* 24 x42) (* 13 x3)) (- 21))) (?v_67 (not ?v_36)) (?v_70 (distinct (+ (* 4 x0) (* 24 x48) (* 25 x27)) (- 24)))) (let ((?v_137 (not ?v_70)) (?v_169 (not ?v_38)) (?v_42 (= (+ (* (- 9) x33) (* 17 x6) (* 5 x37)) 29))) (let ((?v_203 (not ?v_42)) (?v_85 (not ?v_43)) (?v_49 (<= (+ (- (* (- 26) x16) (* 17 x27)) (* 22 x42)) (- 16)))) (let ((?v_87 (not ?v_49)) (?v_56 (<= (- (- (* 2 x13) (* 21 x41)) (* 13 x21)) (- 23)))) (let ((?v_255 (not ?v_56)) (?v_77 (< (+ (- (* (- 10) x42) (* 16 x14)) (* 6 x40)) (- 27)))) (let ((?v_63 (not ?v_77)) (?v_75 (<= (+ (* (- 16) x7) (* 15 x43) (* 15 x35)) (- 25)))) (let ((?v_66 (not ?v_75)) (?v_90 (<= (+ (- (* 18 x11) (* 18 x4)) (* 23 x48)) (- 27))) (?v_83 (= (+ (- (* 24 x11) (* 4 x14)) (* 18 x42)) (- 21))) (?v_191 (<= (+ (* 8 x21) (* 27 x15) x45) (- 10)))) (let ((?v_135 (not ?v_191)) (?v_133 (not ?v_9)) (?v_105 (not ?v_83)) (?v_145 (<= (- (- (* (- 12) x0) (* 11 x21)) (* 10 x29)) (- 16))) (?v_94 (not ?v_27)) (?v_154 (not ?v_90)) (?v_100 (not ?v_58)) (?v_205 (distinct (- (+ (* (- 27) x32) (* 7 x3)) (* 27 x45)) 8))) (let ((?v_200 (not ?v_205)) (?v_140 (<= (+ (- (* 14 x17) (* 5 x47)) (* 18 x18)) (- 9)))) (let ((?v_189 (not ?v_140)) (?v_167 (<= (- (* 3 x41) (* 10 x6)) (- 7))) (?v_122 (< (+ (- (* (- 20) x39) ?v_108) (* 18 x45)) (- 29))) (?v_136 (< (- (+ (* (- 27) x16) (* 21 x30)) (* 9 x34)) 21)) (?v_126 (< (+ (* 25 x35) (* 13 x34) (* 9 x39)) (- 17)))) (let ((?v_247 (not ?v_126)) (?v_172 (not ?v_136)) (?v_153 (< (+ (- (* (- 1) x5) (* 6 x38)) (* 12 x39)) (- 19))) (?v_188 (= (- (+ (* (- 9) x8) (* 22 x43)) (* 2 x43)) (- 3)))) (let ((?v_241 (not ?v_153)) (?v_211 (not ?v_159)) (?v_257 (not ?v_145)) (?v_208 (not ?v_167)) (?v_175 (not ?v_174)) (?v_213 (not ?v_73)) (?v_207 (not ?v_122)) (?v_227 (not ?v_50)) (?v_245 (not ?v_188)) (?v_250 (not ?v_242))) (and (and (and (and (and (and (and (and (and (and (and (and (and (and (and (and (and (and (and (and (and (and (and (and (and (and (and (and (and (and (and (and (and (and (and (and (and (and (and (and (and (and (and (and (and (and (and (and (and (and (and (and (and (and (and (and (and (and (and (and (and (and (and (and (and (and (and (and (and (and (and (and (and (and (and (and (and (and (and (and (and (and (and (and (and (and (and (and (and (and (and (and (and (and (and (and (and (and (and (and (and (and (and (and (and (and (and (and (and (and (and (and (and (and (and (and (and (and (and (and (and (and (and (and (and (and (and (and (and (and (and (and (and (and (and (and (and (and (and (and (and (and (and (and (and (and (and (and (and (and (and (and (and (and (and (and (and (and (and (and (and (and (and (and (and (and (and (and (and (and (and (and (and (and (and (and (and (and (and (and (and (and (and (and (and (and (and (and (and (and (and (and (and (and (and (and (and (and (and (and (and (and (and (and (and (and (and (and (and (and (and (and (and (and (and (and (and (and (and (and (and (and (and (and (and (and (and (and (and (and (and (and (and (and (and (and (and (and (and (and (and (and (and (and (and (and (and (and (and (and (and (and (and (and (and (and (and (and (and (and (and (and (and (and (and (and (and (and (and (and (and (and (and (and (and (and (and (and (and (and (and (and (and (and (and (and (and (and (and (and (and (and (and (and (and (and (and (and (and (and (and (and (and (and (and (and (and (and (and (and (and (and (and (and (and (and (and (and (and (and (and (and (and (and (and (and (and (and (and (and (and (and (and (and (and (and (and (and (and (and (and (and (and (and (and (and (and (and (and (and (and (and (and (and (and (and (and (and (and (and (and (and (and (and (and (and (and (and (and (and (and (and (and (and (and (and (and (and (and (and (and (and (and (and (and (and (and (and (and (and (and (and (and (and (and (and (and (and (and (and (and (and (and (and (and (and (and (and (and (and (and (and (and (and (and (and (and (and (and (and (and (and (and (and (and (and (and (and (and (and (and (and (and (and (and (and (and (and (and (and (and (and (and (and (and (and (and (and (and (and (and (and (and (and (and (and (and (and (and (and (and (and (and (and (and (and (and (and (and (and (and (and (and (and (and (and (and (and (and (and (and (and (and (and (and (and (and (and (and (and (and (and (and (and (and (and (and (and (and (and (and (and (and (and (and (and (and (and (and (and (and (and (and (and (and (and (and (and (and (and (and (and (and (and (and (and (and (and (and (and (and (and (and (and (and (and (and (and (and (and (and (and (and (and (and (and (and (and (and (and (and (and (and (and (and (and (and (and (and (and (and (and (and (and (and (and (and (and (and (and (and (and (and (and (and (and (and (and (and (and (and (and (and (and (and (and (and (and (and (and (and (and (and (and (and (and (and (and (and (or (or ?v_40 ?v_13) ?v_0) (or (or ?v_28 ?v_0) ?v_104)) (or (or ?v_217 ?v_4) ?v_54)) (or (or ?v_127 ?v_106) ?v_9)) (or (or ?v_16 ?v_162) P17)) (or (or ?v_64 P34) ?v_15)) (or (or P28 ?v_2) ?v_7)) (or (or ?v_32 ?v_1) ?v_159)) (or (or P21 ?v_242) P37)) (or (or ?v_20 ?v_10) P28)) (or (or ?v_22 ?v_174) ?v_57)) (or (or ?v_119 ?v_27) ?v_14)) (or (or ?v_11 ?v_88) ?v_36)) (or (or ?v_115 ?v_3) ?v_5)) (or (or ?v_8 ?v_48) ?v_214)) (or (or ?v_123 ?v_134) ?v_52)) (or (or ?v_7 ?v_8) ?v_43)) (or (or ?v_113 ?v_41) P3)) (or (or P19 P44) ?v_78)) (or (or ?v_141 ?v_9) ?v_121)) (or (or ?v_19 ?v_192) ?v_46)) (or (or ?v_10 ?v_11) ?v_76)) (or (or ?v_26 ?v_39) ?v_31)) (or (or ?v_24 ?v_23) ?v_72)) (or (or ?v_38 P20) ?v_17)) (or (or P3 ?v_14) ?v_71)) (or (or ?v_15 ?v_86) ?v_16)) (or (or ?v_34 ?v_17) ?v_25)) (or (or ?v_168 ?v_60) ?v_225)) (or (or ?v_20 ?v_21) ?v_58)) (or (or ?v_22 ?v_23) P48)) (or (or ?v_33 ?v_51) ?v_73)) (or (or ?v_186 ?v_16) ?v_25)) (or (or ?v_26 ?v_27) ?v_89)) (or (or ?v_28 ?v_131) ?v_156)) (or (or ?v_68 ?v_50) ?v_30)) (or ?v_244 ?v_218)) (or (or ?v_33 ?v_34) ?v_35)) (or (or ?v_179 ?v_67) ?v_137)) (or (or P48 ?v_221) ?v_37)) (or (or ?v_169 ?v_183) P28)) (or (or ?v_39 ?v_95) ?v_16)) (or (or ?v_203 ?v_202) ?v_40)) (or (or ?v_82 ?v_47) ?v_157)) (or (or ?v_53 ?v_99) ?v_41)) (or (or ?v_103 ?v_42) ?v_85)) (or (or ?v_24 P36) ?v_87)) (or (or P20 ?v_44) ?v_45)) (or (or ?v_46 ?v_47) ?v_243)) (or (or ?v_24 P15) ?v_48)) (or (or ?v_49 ?v_50) ?v_51)) (or (or ?v_52 ?v_255) ?v_23)) (or (or ?v_63 ?v_66) ?v_112)) (or (or ?v_42 ?v_90) ?v_54)) (or (or P43 ?v_55) ?v_61)) (or (or ?v_56 ?v_59) ?v_15)) (or (or P4 ?v_57) ?v_53)) (or (or ?v_117 ?v_65) ?v_49)) (or (or P18 ?v_109) ?v_58)) (or (or ?v_17 ?v_83) ?v_135)) (or (or ?v_148 ?v_59) ?v_0)) (or (or P32 ?v_60) ?v_61)) (or (or ?v_133 P23) ?v_96)) (or (or ?v_62 P47) ?v_173)) (or (or P30 ?v_130) ?v_55)) (or (or ?v_63 ?v_64) ?v_224)) (or (or ?v_50 ?v_65) ?v_66)) (or (or ?v_8 ?v_45) ?v_67)) (or (or ?v_180 ?v_39) P32)) (or (or ?v_69 ?v_116) P7)) (or (or ?v_70 ?v_67) ?v_110)) (or (or ?v_61 ?v_71) ?v_72)) (or (or ?v_73 ?v_74) ?v_75)) (or (or ?v_98 ?v_124) ?v_107)) (or (or ?v_128 P18) ?v_10)) (or (or ?v_76 ?v_77) ?v_151)) (or (or P6 P47) ?v_65)) (or (or ?v_78 ?v_79) ?v_80)) (or (or ?v_81 ?v_91) ?v_24)) (or (or ?v_54 ?v_82) P3)) (or (or ?v_70 ?v_105) ?v_84)) (or (or ?v_230 P28) ?v_85)) (or (or ?v_86 ?v_114) ?v_145)) (or (or P11 ?v_87) ?v_161)) (or (or ?v_94 ?v_89) ?v_154)) (or (or ?v_50 ?v_47) ?v_53)) (or (or ?v_24 ?v_91) ?v_100)) (or (or ?v_4 P46) ?v_200)) (or (or ?v_92 ?v_31) ?v_41)) (or (or ?v_195 ?v_46) ?v_193)) (or (or ?v_93 ?v_90) ?v_94)) (or (or P6 P31) ?v_95)) (or (or ?v_96 ?v_232) ?v_189)) (or (or P32 P14) ?v_160)) (or (or ?v_97 ?v_155) P22)) (or (or P33 ?v_99) ?v_239)) (or (or P0 ?v_100) ?v_54)) (or (or ?v_125 ?v_68) ?v_47)) (or (or P22 ?v_212) ?v_15)) (or (or ?v_101 ?v_102) ?v_103)) (or (or ?v_104 ?v_143) ?v_30)) (or (or ?v_105 ?v_61) P47)) (or (or ?v_164 ?v_120) ?v_167)) (or (or ?v_106 ?v_107) ?v_122)) (or (or ?v_94 ?v_85) ?v_118)) (or (or P31 ?v_47) ?v_136)) (or (or ?v_110 P4) ?v_68)) (or (or P13 P31) ?v_249)) (or (or ?v_111 ?v_112) ?v_113)) (or (or P24 ?v_94) ?v_49)) (or (or P31 ?v_59) P28)) (or (or ?v_247 ?v_219) ?v_114)) (or (or P17 ?v_65) ?v_115)) (or (or ?v_116 ?v_92) ?v_20)) (or (or ?v_91 ?v_117) ?v_150)) (or (or ?v_8 ?v_50) ?v_118)) (or (or ?v_102 ?v_119) ?v_132)) (or (or ?v_120 ?v_46) ?v_121)) (or (or ?v_94 ?v_10) ?v_61)) (or (or ?v_166 P42) ?v_31)) (or (or ?v_122 ?v_123) ?v_124)) (or (or ?v_112 ?v_72) ?v_69)) (or (or ?v_38 ?v_125) P34)) (or (or ?v_114 ?v_126) ?v_127)) (or (or P9 ?v_128) ?v_102)) (or (or P29 ?v_129) ?v_49)) (or ?v_144 ?v_71)) (or (or ?v_123 P49) ?v_49)) (or (or ?v_131 ?v_125) ?v_132)) (or (or P19 ?v_103) ?v_13)) (or (or ?v_1 P13) ?v_133)) (or (or ?v_24 ?v_197) ?v_146)) (or (or ?v_85 ?v_135) P3)) (or (or ?v_24 ?v_172) ?v_44)) (or (or P29 ?v_152) ?v_57)) (or (or ?v_137 ?v_147) ?v_62)) (or (or ?v_138 ?v_34) ?v_20)) (or (or ?v_238 ?v_139) ?v_140)) (or (or ?v_40 ?v_82) ?v_141)) (or (or ?v_7 ?v_80) ?v_133)) (or (or ?v_153 ?v_41) ?v_142)) (or (or P33 ?v_143) P19)) (or ?v_144 ?v_51)) (or (or ?v_115 ?v_145) ?v_135)) (or (or P21 ?v_146) ?v_95)) (or (or ?v_107 ?v_19) ?v_97)) (or (or ?v_176 P48) ?v_201)) (or (or ?v_135 ?v_148) ?v_55)) (or (or P35 ?v_188) P42)) (or (or ?v_149 ?v_178) ?v_21)) (or (or ?v_151 P19) ?v_86)) (or (or ?v_101 ?v_20) P4)) (or (or ?v_152 ?v_241) ?v_154)) (or (or ?v_155 ?v_56) ?v_165)) (or (or ?v_45 ?v_11) ?v_156)) (or (or ?v_92 ?v_43) ?v_196)) (or (or ?v_145 ?v_158) P39)) (or (or ?v_115 P31) P40)) (or (or ?v_211 ?v_159) P8)) (or (or ?v_72 P22) ?v_66)) (or (or ?v_216 ?v_161) ?v_162)) (or (or ?v_171 P6) P33)) (or (or ?v_131 ?v_163) ?v_164)) (or (or ?v_22 ?v_150) ?v_139)) (or (or ?v_165 ?v_0) ?v_11)) (or (or P16 ?v_93) ?v_149)) (or (or ?v_78 ?v_141) ?v_23)) (or (or ?v_40 ?v_166) ?v_15)) (or (or ?v_145 ?v_11) ?v_107)) (or (or ?v_184 ?v_9) ?v_15)) (or (or P38 ?v_257) ?v_103)) (or (or ?v_10 ?v_54) ?v_170)) (or (or ?v_72 P15) ?v_94)) (or (or ?v_208 ?v_109) ?v_24)) (or (or ?v_240 P22) ?v_53)) (or (or P6 ?v_194) ?v_160)) (or (or ?v_140 ?v_66) ?v_133)) (or (or ?v_71 ?v_37) ?v_168)) (or (or ?v_23 ?v_169) ?v_100)) (or (or ?v_13 ?v_76) ?v_59)) (or (or ?v_155 ?v_215) ?v_75)) (or (or P27 ?v_123) ?v_13)) (or (or ?v_130 P22) ?v_5)) (or (or ?v_159 P19) ?v_170)) (or (or ?v_146 ?v_106) ?v_171)) (or (or ?v_172 ?v_111) ?v_177)) (or (or ?v_1 ?v_148) ?v_60)) (or (or ?v_63 ?v_156) ?v_15)) (or (or ?v_173 ?v_53) ?v_58)) (or (or ?v_24 ?v_100) ?v_175)) (or (or ?v_175 P36) ?v_164)) (or (or ?v_159 ?v_176) ?v_38)) (or (or ?v_177 ?v_97) P24)) (or (or ?v_178 ?v_81) ?v_162)) (or (or ?v_85 P29) ?v_179)) (or (or ?v_180 ?v_181) ?v_154)) (or (or ?v_182 ?v_91) ?v_162)) (or (or ?v_9 ?v_183) ?v_213)) (or (or ?v_184 ?v_199) ?v_98)) (or (or P30 ?v_136) ?v_83)) (or (or ?v_165 ?v_8) ?v_112)) (or (or ?v_112 ?v_185) P12)) (or (or ?v_142 ?v_186) ?v_80)) (or (or ?v_228 ?v_188) ?v_159)) (or (or ?v_69 ?v_189) ?v_132)) (or (or ?v_90 ?v_164) ?v_190)) (or (or ?v_98 ?v_41) ?v_178)) (or (or ?v_109 ?v_172) ?v_56)) (or (or ?v_92 P24) ?v_172)) (or (or ?v_7 ?v_166) ?v_30)) (or (or ?v_254 ?v_107) ?v_191)) (or (or ?v_192 P35) ?v_36)) (or (or P4 ?v_54) P38)) (or (or ?v_159 ?v_128) ?v_15)) (or (or ?v_93 ?v_4) ?v_207)) (or (or ?v_193 ?v_76) ?v_194)) (or (or P32 P9) ?v_2)) (or (or ?v_133 ?v_195) P35)) (or (or P13 ?v_206) ?v_28)) (or (or ?v_196 ?v_184) P41)) (or (or ?v_4 ?v_93) ?v_142)) (or (or ?v_197 ?v_198) P38)) (or (or ?v_115 ?v_184) ?v_30)) (or (or ?v_185 P45) ?v_127)) (or (or ?v_31 ?v_7) ?v_80)) (or (or P6 ?v_141) ?v_229)) (or (or ?v_169 ?v_120) ?v_30)) (or (or ?v_13 ?v_83) ?v_166)) (or (or ?v_52 ?v_129) P2)) (or (or ?v_170 ?v_98) ?v_199)) (or ?v_251 ?v_63)) (or (or ?v_146 ?v_133) P7)) (or (or ?v_67 ?v_78) ?v_200)) (or (or ?v_169 ?v_201) ?v_227)) (or (or ?v_202 ?v_203) ?v_204)) (or (or P32 ?v_94) ?v_34)) (or (or ?v_69 ?v_177) ?v_11)) (or (or ?v_205 ?v_157) ?v_110)) (or (or ?v_94 ?v_192) ?v_206)) (or (or ?v_146 ?v_180) ?v_30)) (or (or ?v_207 ?v_194) ?v_93)) (or (or ?v_57 ?v_70) ?v_210)) (or (or ?v_113 ?v_159) ?v_66)) (or (or ?v_202 ?v_44) ?v_178)) (or (or ?v_174 ?v_149) ?v_208)) (or (or ?v_124 ?v_125) ?v_28)) (or (or ?v_209 ?v_114) ?v_130)) (or (or ?v_25 ?v_4) ?v_181)) (or (or ?v_48 ?v_0) ?v_198)) (or (or ?v_210 P12) ?v_49)) (or (or ?v_115 ?v_211) P7)) (or (or ?v_212 ?v_190) P0)) (or (or ?v_119 ?v_213) ?v_56)) (or (or ?v_117 ?v_123) ?v_157)) (or (or ?v_214 P13) ?v_20)) (or (or ?v_211 ?v_124) ?v_103)) (or (or ?v_134 ?v_215) ?v_10)) (or (or ?v_72 ?v_207) ?v_195)) (or (or ?v_216 ?v_69) P17)) (or (or ?v_217 ?v_202) P24)) (or (or P10 ?v_0) ?v_56)) (or (or ?v_173 P31) ?v_218)) (or (or ?v_194 ?v_58) P39)) (or (or ?v_132 P46) ?v_237)) (or (or ?v_139 ?v_28) ?v_135)) (or (or ?v_220 ?v_97) ?v_188)) (or (or P28 ?v_17) ?v_59)) (or (or P25 ?v_201) ?v_87)) (or (or ?v_68 ?v_23) ?v_221)) (or (or ?v_193 ?v_222) ?v_160)) (or (or ?v_146 ?v_60) P37)) (or (or ?v_30 P45) ?v_177)) (or (or ?v_223 P19) P47)) (or (or ?v_168 ?v_146) P29)) (or (or ?v_121 ?v_161) ?v_182)) (or (or ?v_176 ?v_82) ?v_17)) (or (or ?v_138 ?v_63) ?v_123)) (or (or ?v_192 ?v_224) ?v_202)) (or (or ?v_151 ?v_8) ?v_225)) (or (or ?v_231 ?v_30) ?v_52)) (or (or P4 ?v_5) ?v_226)) (or (or ?v_227 ?v_208) ?v_78)) (or (or ?v_176 P6) ?v_228)) (or (or ?v_52 P37) ?v_2)) (or (or ?v_199 ?v_109) ?v_218)) (or (or ?v_234 ?v_43) ?v_22)) (or (or P0 ?v_174) ?v_56)) (or (or ?v_118 P16) ?v_36)) (or (or P16 ?v_143) ?v_117)) (or (or ?v_162 ?v_229) ?v_66)) (or (or ?v_113 ?v_193) ?v_196)) (or (or ?v_84 ?v_192) ?v_3)) (or (or ?v_200 P19) ?v_27)) (or (or ?v_179 ?v_233) P36)) (or (or ?v_166 ?v_177) ?v_40)) (or (or ?v_230 ?v_231) P37)) (or (or ?v_15 ?v_76) ?v_53)) (or (or ?v_85 ?v_232) ?v_164)) (or (or ?v_22 ?v_19) ?v_41)) (or (or ?v_189 ?v_78) P7)) (or (or ?v_219 ?v_233) ?v_43)) (or (or ?v_132 ?v_161) ?v_138)) (or (or ?v_234 ?v_70) P39)) (or (or P6 ?v_189) ?v_89)) (or (or P12 P44) ?v_13)) (or (or ?v_116 ?v_93) ?v_175)) (or (or ?v_102 ?v_83) P11)) (or (or ?v_153 ?v_148) P31)) (or (or ?v_32 ?v_126) ?v_114)) (or (or ?v_124 ?v_37) ?v_235)) (or (or ?v_64 ?v_57) ?v_37)) (or (or ?v_56 ?v_182) ?v_130)) (or (or ?v_221 ?v_151) ?v_168)) (or (or ?v_226 ?v_5) ?v_107)) (or (or P15 ?v_211) ?v_122)) (or (or P36 ?v_236) ?v_50)) (or (or ?v_50 ?v_125) ?v_52)) (or (or ?v_120 ?v_37) ?v_103)) (or (or ?v_185 ?v_65) ?v_75)) (or (or ?v_117 P18) ?v_112)) (or (or ?v_253 P23) P16)) (or (or ?v_129 ?v_153) ?v_93)) (or (or P29 ?v_33) ?v_142)) (or (or P40 ?v_8) ?v_129)) (or (or ?v_152 ?v_149) ?v_169)) (or (or ?v_235 ?v_11) ?v_44)) (or (or ?v_222 ?v_237) ?v_232)) (or (or ?v_118 ?v_246) P26)) (or (or P27 P9) ?v_166)) (or (or ?v_66 ?v_75) ?v_68)) (or (or P48 ?v_131) ?v_77)) (or (or ?v_232 ?v_203) P13)) (or (or ?v_123 ?v_231) P0)) (or (or ?v_45 ?v_69) ?v_61)) (or (or ?v_214 ?v_238) ?v_132)) (or (or P48 ?v_112) ?v_217)) (or (or ?v_35 P23) ?v_134)) (or (or ?v_221 ?v_114) ?v_146)) (or (or ?v_194 P28) ?v_191)) (or (or ?v_131 ?v_204) ?v_15)) (or (or P14 P8) P17)) (or (or P40 ?v_175) ?v_80)) (or (or ?v_200 ?v_197) P44)) (or (or ?v_9 ?v_216) ?v_51)) (or (or ?v_140 P42) ?v_200)) (or (or ?v_143 ?v_181) P46)) (or (or ?v_128 ?v_239) ?v_93)) (or (or ?v_73 ?v_76) P23)) (or (or ?v_238 ?v_206) P23)) (or (or P23 ?v_178) ?v_149)) (or (or P23 ?v_233) ?v_240)) (or (or ?v_172 ?v_98) ?v_48)) (or (or P3 ?v_175) ?v_177)) (or (or P7 ?v_219) ?v_62)) (or (or ?v_181 ?v_193) ?v_30)) (or (or ?v_231 P10) ?v_227)) (or (or ?v_55 ?v_98) ?v_192)) (or (or ?v_72 P5) ?v_62)) (or (or ?v_23 ?v_200) ?v_241)) (or (or ?v_128 P10) ?v_118)) (or (or ?v_195 P31) ?v_178)) (or (or ?v_231 ?v_252) ?v_242)) (or (or ?v_42 ?v_46) ?v_154)) (or (or ?v_52 ?v_36) ?v_66)) (or (or ?v_104 ?v_43) ?v_243)) (or (or ?v_153 ?v_208) ?v_2)) (or (or ?v_180 ?v_56) ?v_233)) (or (or ?v_61 P1) ?v_54)) (or (or ?v_56 P21) ?v_128)) (or (or ?v_61 P39) ?v_198)) (or (or ?v_107 P43) ?v_142)) (or (or ?v_38 ?v_171) ?v_209)) (or (or ?v_109 ?v_154) ?v_208)) (or (or ?v_85 P19) ?v_121)) (or ?v_244 ?v_130)) (or (or ?v_248 ?v_245) ?v_77)) (or (or ?v_94 ?v_171) ?v_123)) (or (or ?v_245 ?v_178) ?v_129)) (or (or ?v_78 ?v_240) ?v_220)) (or (or ?v_207 ?v_250) ?v_151)) (or (or ?v_112 ?v_107) ?v_217)) (or (or ?v_153 ?v_53) ?v_143)) (or (or P22 ?v_183) P35)) (or (or P47 ?v_70) P28)) (or (or ?v_14 ?v_48) ?v_90)) (or (or P19 ?v_118) ?v_88)) (or (or ?v_88 ?v_57) ?v_43)) (or (or ?v_72 ?v_44) ?v_38)) (or (or ?v_28 ?v_208) ?v_202)) (or (or ?v_246 ?v_3) ?v_208)) (or (or ?v_27 ?v_247) ?v_107)) (or (or ?v_17 ?v_85) ?v_151)) (or (or ?v_205 P4) ?v_214)) (or (or ?v_118 ?v_215) ?v_222)) (or (or ?v_145 ?v_24) ?v_176)) (or (or ?v_31 ?v_129) P44)) (or (or ?v_97 ?v_143) ?v_121)) (or (or ?v_197 P8) ?v_223)) (or (or ?v_82 ?v_248) ?v_256)) (or (or ?v_189 ?v_194) ?v_87)) (or (or ?v_224 ?v_190) ?v_37)) (or (or ?v_61 ?v_54) ?v_64)) (or (or ?v_173 ?v_137) ?v_227)) (or (or ?v_230 ?v_242) ?v_48)) (or (or P28 P19) ?v_194)) (or (or ?v_175 ?v_250) ?v_60)) (or (or ?v_168 ?v_248) ?v_154)) (or (or ?v_101 ?v_55) ?v_11)) (or (or ?v_78 P34) ?v_183)) (or (or ?v_239 ?v_154) ?v_97)) (or (or ?v_135 ?v_129) ?v_38)) (or (or ?v_177 ?v_103) ?v_230)) (or (or ?v_152 ?v_132) ?v_198)) (or (or ?v_163 ?v_192) ?v_16)) (or (or ?v_50 P47) ?v_136)) (or (or ?v_92 ?v_100) ?v_28)) (or (or ?v_5 ?v_176) ?v_174)) (or (or ?v_8 ?v_181) ?v_4)) (or (or P39 ?v_213) ?v_154)) (or (or ?v_203 ?v_66) ?v_11)) (or (or ?v_56 ?v_125) ?v_10)) (or (or ?v_234 ?v_15) ?v_148)) (or ?v_251 ?v_110)) (or (or P17 P35) ?v_211)) (or (or ?v_74 ?v_167) ?v_94)) (or (or ?v_165 ?v_97) ?v_138)) (or (or P48 ?v_107) ?v_127)) (or (or ?v_240 ?v_164) P32)) (or (or ?v_22 ?v_38) ?v_158)) (or (or ?v_252 ?v_178) ?v_129)) (or (or ?v_48 ?v_233) P30)) (or (or ?v_231 ?v_95) P7)) (or (or ?v_15 P23) P9)) (or (or ?v_240 ?v_134) ?v_24)) (or (or ?v_127 ?v_16) P28)) (or (or ?v_131 P29) ?v_39)) (or (or ?v_74 ?v_253) ?v_198)) (or (or ?v_37 ?v_252) ?v_221)) (or (or ?v_149 ?v_46) ?v_8)) (or (or P2 ?v_198) P13)) (or (or ?v_235 ?v_195) ?v_141)) (or (or ?v_66 ?v_113) ?v_61)) (or (or P47 ?v_110) ?v_150)) (or (or ?v_219 ?v_36) ?v_176)) (or (or ?v_134 ?v_150) ?v_26)) (or (or ?v_32 ?v_208) ?v_114)) (or (or P43 ?v_122) ?v_57)) (or (or ?v_130 ?v_110) ?v_76)) (or (or ?v_210 ?v_207) ?v_162)) (or (or ?v_94 ?v_177) P34)) (or (or ?v_235 ?v_97) ?v_61)) (or (or ?v_166 ?v_121) ?v_173)) (or (or ?v_109 ?v_79) ?v_33)) (or (or P9 ?v_142) ?v_162)) (or (or ?v_72 ?v_119) P4)) (or (or ?v_36 ?v_139) ?v_112)) (or (or ?v_139 P37) ?v_137)) (or (or ?v_147 ?v_101) ?v_171)) (or (or ?v_102 ?v_221) P41)) (or (or P5 ?v_254) P8)) (or (or ?v_27 P13) ?v_139)) (or (or ?v_186 ?v_22) ?v_92)) (or (or P7 ?v_167) ?v_21)) (or (or P6 P49) ?v_169)) (or (or ?v_245 ?v_255) ?v_49)) (or (or ?v_98 ?v_70) ?v_154)) (or (or ?v_112 ?v_235) ?v_52)) (or (or ?v_248 ?v_242) ?v_201)) (or (or ?v_107 ?v_175) ?v_152)) (or (or P8 ?v_39) ?v_47)) (or (or ?v_142 ?v_134) ?v_68)) (or (or ?v_25 ?v_169) ?v_112)) (or (or ?v_174 ?v_45) ?v_203)) (or (or ?v_100 ?v_169) P12)) (or (or ?v_49 ?v_101) ?v_92)) (or (or ?v_248 ?v_199) ?v_124)) (or (or ?v_200 P9) ?v_160)) (or (or ?v_106 ?v_132) ?v_234)) (or (or P42 ?v_231) ?v_76)) (or (or ?v_111 ?v_131) ?v_117)) (or (or ?v_230 P35) ?v_123)) (or (or ?v_73 ?v_208) ?v_105)) (or (or ?v_168 ?v_96) P49)) (or (or ?v_175 P15) ?v_83)) (or (or ?v_131 ?v_172) P5)) (or (or ?v_109 P35) ?v_214)) (or (or P6 ?v_149) P19)) (or (or ?v_157 P39) ?v_123)) (or (or ?v_226 ?v_136) ?v_227)) (or (or ?v_33 ?v_177) ?v_242)) (or (or ?v_54 ?v_224) ?v_81)) (or (or ?v_201 ?v_146) ?v_19)) (or (or ?v_60 ?v_231) ?v_222)) (or (or ?v_145 ?v_142) ?v_241)) (or (or P4 ?v_114) P13)) (or (or ?v_176 ?v_66) ?v_205)) (or (or ?v_231 ?v_131) ?v_230)) (or (or ?v_143 ?v_51) P2)) (or (or ?v_162 ?v_99) ?v_134)) (or (or P47 P6) ?v_9)) (or (or P10 ?v_128) ?v_206)) (or (or ?v_197 ?v_221) ?v_85)) (or (or P16 ?v_169) ?v_67)) (or (or P26 ?v_113) ?v_152)) (or (or ?v_49 ?v_165) ?v_174)) (or (or ?v_233 ?v_34) ?v_79)) (or (or ?v_150 ?v_153) ?v_232)) (or (or ?v_35 ?v_206) ?v_147)) (or (or P19 ?v_193) ?v_171)) (or (or ?v_153 ?v_130) ?v_131)) (or (or ?v_200 ?v_154) ?v_163)) (or (or P41 ?v_171) ?v_138)) (or (or ?v_32 P21) ?v_72)) (or (or ?v_174 P30) ?v_109)) (or (or ?v_155 ?v_64) ?v_136)) (or (or ?v_203 ?v_157) ?v_232)) (or (or ?v_87 ?v_225) ?v_213)) (or (or ?v_111 ?v_72) ?v_256)) (or (or ?v_213 ?v_182) ?v_86)) (or (or ?v_39 ?v_178) ?v_198)) (or (or ?v_66 ?v_175) ?v_110)) (or (or ?v_182 ?v_27) ?v_115)) (or (or ?v_164 P1) ?v_65)) (or (or ?v_234 ?v_55) ?v_62)) (or (or ?v_26 ?v_171) ?v_241)) (or (or ?v_188 P29) ?v_81)) (or (or ?v_255 ?v_188) ?v_121)) (or (or ?v_75 ?v_63) ?v_258)) (or (or ?v_219 ?v_135) ?v_180)) (or (or ?v_202 ?v_53) ?v_197)) (or (or P39 ?v_48) ?v_132)) (or (or ?v_183 ?v_54) ?v_159)) (or (or P24 ?v_157) ?v_36)) (or (or ?v_106 P14) ?v_3)) (or (or ?v_167 ?v_164) ?v_60)) (or (or P27 ?v_136) ?v_76)) (or (or ?v_135 P3) ?v_194)) (or (or P40 ?v_143) ?v_106)) (or (or ?v_148 ?v_200) ?v_175)) (or (or ?v_179 ?v_257) ?v_121)) (or (or P42 ?v_90) ?v_142)) (or (or P48 ?v_155) ?v_33)) (or (or ?v_122 ?v_204) P8)) (or (or ?v_258 ?v_67) ?v_46)) (or (or ?v_51 ?v_196) ?v_139)) (or (or ?v_237 P24) ?v_68)) (or (or P1 ?v_142) ?v_215)) (or (or ?v_129 ?v_115) ?v_201)) (or (or ?v_64 ?v_138) ?v_257)) (or (or ?v_202 ?v_177) P19)) (or (or ?v_178 P47) ?v_258)) (or (or P3 ?v_67) ?v_206)) (or (or ?v_14 ?v_227) ?v_214)) (or (or ?v_31 ?v_193) ?v_124)) (or (or ?v_241 ?v_181) ?v_83)) (or (or P39 ?v_217) ?v_7)) (or (or ?v_151 P45) ?v_172)) (or (or ?v_227 ?v_238) ?v_218)) (or (or ?v_123 ?v_219) ?v_221)) (or (or ?v_16 P23) ?v_173)) (or (or ?v_78 ?v_235) ?v_125)) (or (or ?v_210 ?v_247) ?v_26)) (or (or P15 ?v_198) ?v_13)) (or (or ?v_98 ?v_185) ?v_226)) (or (or ?v_3 ?v_224) ?v_24)) (or (or P47 ?v_214) P17)) (or (or P42 ?v_234) ?v_127)) (or (or ?v_181 ?v_240) ?v_66)) (or (or ?v_126 ?v_190) ?v_84)) (or (or ?v_150 ?v_109) ?v_133)) (or (or ?v_168 P38) ?v_256)) (or (or ?v_98 ?v_104) P34)) (or (or ?v_235 P19) P2)) (or (or ?v_168 ?v_49) ?v_176)) (or (or ?v_124 ?v_96) ?v_199)) (or (or ?v_72 ?v_45) ?v_67)) (or (or ?v_95 ?v_73) P2)) (or (or ?v_9 P15) P24)) (or (or P31 ?v_122) ?v_224)) (or (or ?v_218 P38) ?v_250)) (or (or ?v_61 ?v_196) ?v_238)) (or (or ?v_133 ?v_155) ?v_215)) (or (or ?v_231 ?v_65) ?v_165)) (or (or P3 ?v_239) ?v_210)) (or (or ?v_236 ?v_175) ?v_195)) (or (or ?v_4 ?v_68) P43)) (or (or ?v_37 ?v_215) ?v_211)) (or (or ?v_32 ?v_91) ?v_99)) (or (or ?v_22 ?v_188) ?v_34)) (or (or ?v_209 ?v_158) ?v_61)) (or (or ?v_140 ?v_63) ?v_35)) (or (or ?v_77 ?v_184) ?v_52)) (or (or ?v_53 ?v_204) ?v_148)) (or (or ?v_82 ?v_241) ?v_198)) (or (or ?v_238 ?v_78) ?v_133)) (or (or ?v_203 P1) ?v_76)) (or (or P34 P36) ?v_27)) (or (or ?v_191 ?v_234) ?v_15)) (or (or ?v_17 ?v_228) P16)) (or (or ?v_172 ?v_35) ?v_56))))))))))))))))))))))))))))))))
(check-sat)
(exit)
